TCS_Benchmarks/redos_fix/regexlib1_output_distinct_4156_4155_30_0.smt2
(set-logic QF_S)
(declare-const x String)
(assert (str.in.re x (re.inter (re.+ (re.range "\u{30}" "\u{39}") )  (re.++ (re.+ (re.range "\u{30}" "\u{39}") ) (re.++  (re.union (str.to_re "")  (re.++  (re.union  (str.to.re "\u{2d}") (re.union (re.range "\u{41}" "\u{5a}") (re.range "\u{61}" "\u{7a}")))  (str.to_re ""))) (re.* (re.range "\u{30}" "\u{39}") ))) (re.* (re.range "\u{30}" "\u{39}") ) )))
(check-sat)
(get-model)