TCS_Benchmarks/redos_fix/regexlib1_output_distinct_4156_4155_30_0.txt
\d+
(\d+)([\-A-Za-z]{0,1})(\d*)
\d*